(set-option :produce-models true)
(set-logic QF_UF)
(declare-fun p7() Bool)
(declare-fun p4() Bool)
(declare-fun p1() Bool)
(declare-fun p14() Bool)
(declare-fun p0() Bool)
(declare-fun p5() Bool)
(declare-fun p10() Bool)
(declare-fun p13() Bool)
(declare-fun p3() Bool)
(declare-fun p8() Bool)
(declare-fun p9() Bool)
(declare-fun p6() Bool)
(declare-fun p12() Bool)
(declare-fun p2() Bool)
(declare-fun p11() Bool)
(assert
(and (or (not p7) p4 p1) (or (not p14) p0 p4) (or (not p5) p10 (not p13)) (or (not p1) p7 p3) (or (not p8) (not p14) p7) (or (not p9) (not p1) p1) (or (not p1) p6 (not p12)) (or p12 p7 (not p8)) (or (not p7) p5 (not p13)) (or p6 (not p14) (not p7)) (or p1 p10 (not p1)) (or (not p6) p0 (not p0)) (or p7 (not p1) p10) (or (not p13) p7 p9) (or (not p8) p1 (not p5)) (or p2 p3 (not p2)) (or (not p5) p7 (not p9)) (or p9 (not p5) p8) (or p11 (not p4) p0) (or (not p1) p8 (not p4)) (or (not p1) (not p0) p7) (or (not p4) p7 p8) (or p4 (not p5) (not p13)) (or p4 (not p3) p8) (or p5 (not p7) p11) (or p4 (not p6) (not p8)) (or (not p5) p1 (not p2)) (or p3 (not p12) p8) (or p1 p4 p7) (or (not p0) (not p12) p13) (or p13 p3 p13) (or (not p5) p13 (not p13)) (or p3 p3 p14) (or p7 (not p1) p6) (or (not p14) (not p1) p9) (or (not p10) p12 (not p0)) (or (not p3) (not p0) (not p5)) (or p13 (not p10) p9) (or p7 (not p0) (not p1)) (or (not p4) (not p3) (not p3)) (or (not p13) (not p9) (not p9)) (or p8 (not p9) p9) (or p6 (not p8) p0) (or p2 (not p11) p4) (or p12 (not p0) p9) (or p8 (not p12) (not p3)) (or (not p5) (not p1) p12) (or (not p5) (not p6) (not p14)) (or (not p10) p14 (not p14)) (or (not p0) (not p8) p3) (or p8 (not p14) (not p10)) (or p14 p13 p14) (or (not p5) (not p14) (not p0)) (or p14 p1 (not p3)) (or (not p2) (not p0) p10) (or (not p5) (not p13) (not p5)) (or p1 (not p9) p10) (or (not p12) p9 p11) (or p0 (not p13) p3) (or p14 (not p4) (not p11)) (or (not p14) (not p5) p0) (or p9 p8 (not p5)) (or p5 p11 (not p4)) (or p8 p11 p12) (or p4 p8 (not p7)) (or p1 (not p3) (not p4)) (or (not p0) (not p9) p2) (or (not p12) (not p11) (not p9)) (or (not p13) p13 p0))
)
(check-sat)
(get-model)
